NAME: line_10_4
TYPE: TSP
COMMENT: line_10_4
DIMENSION: 10
EDGE_WEIGHT_TYPE: EUC_2D
NODE_COORD_SECTION
1 0.0 33.0
2 0.0 0.0
3 0.0 52.0
4 0.0 70.0
5 0.0 86.0
6 0.0 61.0
7 0.0 49.0
8 0.0 92.0
9 0.0 11.0
10 0.0 8.0
